proyfinal/src/viki/013/experimentInOfficeAgust.take6.output/d241870d-6357-4015-8495-d58863668342.als.dat
{'cnf.clauses': '118081',
 'cnf.totvars': '69608',
 'conflict literals': '4',
 'conflicts': '4',
 'decisions': '551',
 'memused.mb': '16.54',
 'outcome': 'UNSAT',
 'propagations': '19640',
 'restarts': '1',
 'solver.msecs': 28,
 'task.msecs': 77}
