proyfinal/src/viki/013/experimentInOfficeAgust.take6.output/d241870d-6357-4015-8495-d58863668342.als.out
Reading from standard input... Use '--help' for help.
============================[ Problem Statistics ]=============================
|                                                                             |
|  Number of variables:         69608                                         |
|  Number of clauses:          118081                                         |
|  Parse time:                   0.02 s                                       |
|                                                                             |
============================[ Search Statistics ]==============================
| Conflicts |          ORIGINAL         |          LEARNT          | Progress |
|           |    Vars  Clauses Literals |    Limit  Clauses Lit/Cl |          |
===============================================================================
===============================================================================
restarts              : 1
conflicts             : 4              (140 /sec)
decisions             : 551            (0.00 % random) (19266 /sec)
propagations          : 19640          (686713 /sec)
conflict literals     : 4              (0.00 % deleted)
Memory used           : 16.54 MB
CPU time              : 0.0286 s

UNSATISFIABLE
